p = 25;
s = 12;
b = 6;
c = 10;
t = 5;
g = 7;
graph = [| 1,1,1,1,1,0,1,0,1,0,0,1
	| 1,1,1,1,0,0,0,1,0,0,1,0
	| 1,1,1,1,1,0,0,0,0,0,0,1
	| 1,0,0,1,0,1,0,0,1,0,1,1
	| 0,1,0,0,1,0,1,0,1,1,1,1
	| 1,1,0,1,0,0,0,0,1,0,1,0
	| 1,1,0,0,0,1,1,1,0,0,1,1
	| 0,0,0,0,0,0,0,0,0,0,1,1
	| 1,0,0,0,0,0,0,0,0,0,0,0
	| 0,0,1,1,0,1,1,1,1,0,0,0
	| 1,0,1,1,1,1,0,0,0,0,1,0
	| 1,1,1,1,0,0,1,1,1,1,0,0
	| 1,1,0,0,1,1,0,1,0,0,1,0
	| 1,0,1,0,1,1,0,0,0,0,0,1
	| 0,0,1,0,1,0,1,1,1,0,0,0
	| 1,1,0,0,1,1,1,1,1,1,1,1
	| 1,0,1,1,0,0,0,1,1,0,0,0
	| 1,0,1,0,1,0,1,1,1,1,0,0
	| 1,1,0,0,1,1,1,0,0,1,1,0
	| 1,0,1,1,0,1,1,1,0,1,1,0
	| 1,1,0,1,1,0,0,0,1,1,0,1
	| 0,0,1,1,1,0,0,1,1,1,1,1
	| 0,1,1,0,1,1,0,1,1,0,1,0
	| 0,1,0,1,1,1,1,1,1,1,1,1
	| 1,1,0,0,0,0,0,0,1,1,1,0
	|];
groups = [
	{13,21},{25,18,1,22},{20,6,4,24},{12,14,16},{17,2,15,23},{7,11,5,8},{19,9}
]